NAME osmosis_srl_ilp
* Max problem is converted into Min one
ROWS
 N  OBJ
 L  constraint1_4170
 L  constraint1_5680
 L  constraint1_2670
 L  constraint1_6120
 L  constraint1_5630
 L  constraint1_6140
 L  constraint1_3980
 L  constraint1_3690
 L  constraint1_6260
 L  constraint2_4170
 L  constraint2_4171
 L  constraint2_4172
 L  constraint2_4173
 L  constraint2_5680
 L  constraint2_5681
 L  constraint2_5682
 L  constraint2_5683
 L  constraint2_2670
 L  constraint2_2671
 L  constraint2_2672
 L  constraint2_2673
 L  constraint2_6120
 L  constraint2_6121
 L  constraint2_6122
 L  constraint2_6123
 L  constraint2_5630
 L  constraint2_5631
 L  constraint2_5632
 L  constraint2_5633
 L  constraint2_6140
 L  constraint2_6141
 L  constraint2_6142
 L  constraint2_6143
 L  constraint2_3980
 L  constraint2_3981
 L  constraint2_3982
 L  constraint2_3983
 L  constraint2_3690
 L  constraint2_3691
 L  constraint2_3692
 L  constraint2_3693
 L  constraint2_6260
 L  constraint2_6261
 L  constraint2_6262
 L  constraint2_6263
COLUMNS
    MARKER    'MARKER'                 'INTORG'
    Z_417_0_0  OBJ       -2.9980871060827029e-03
    Z_417_0_0  constraint1_4170  1
    Z_417_0_0  constraint2_4170  1
    Z_417_0_1  OBJ       -1.6551940367520369e-02
    Z_417_0_1  constraint1_4170  1
    Z_417_0_1  constraint2_4171  1
    Z_417_0_2  OBJ       -7.7512801957095401e-01
    Z_417_0_2  constraint1_4170  1
    Z_417_0_2  constraint2_4172  1
    Z_417_0_3  OBJ       -9.2970558307207875e-03
    Z_417_0_3  constraint1_4170  1
    Z_417_0_3  constraint2_4173  1
    Z_568_0_0  OBJ       -2.4321313458140702e-03
    Z_568_0_0  constraint1_5680  1
    Z_568_0_0  constraint2_5680  1
    Z_568_0_1  OBJ       -1.3743937276425379e-02
    Z_568_0_1  constraint1_5680  1
    Z_568_0_1  constraint2_5681  1
    Z_568_0_2  OBJ       -6.7864678994170535e-01
    Z_568_0_2  constraint1_5680  1
    Z_568_0_2  constraint2_5682  1
    Z_568_0_3  OBJ       -7.5745214926946644e-03
    Z_568_0_3  constraint1_5680  1
    Z_568_0_3  constraint2_5683  1
    Z_267_0_0  OBJ       -2.2268335118311501e-03
    Z_267_0_0  constraint1_2670  1
    Z_267_0_0  constraint2_2670  1
    Z_267_0_1  OBJ       -1.4723939140841325e-02
    Z_267_0_1  constraint1_2670  1
    Z_267_0_1  constraint2_2671  1
    Z_267_0_2  OBJ       -7.1808485543693201e-01
    Z_267_0_2  constraint1_2670  1
    Z_267_0_2  constraint2_2672  1
    Z_267_0_3  OBJ       -1.9862283465971447e-02
    Z_267_0_3  constraint1_2670  1
    Z_267_0_3  constraint2_2673  1
    Z_612_0_0  OBJ       -2.4321313458140702e-03
    Z_612_0_0  constraint1_6120  1
    Z_612_0_0  constraint2_6120  1
    Z_612_0_1  OBJ       -1.3743937276425379e-02
    Z_612_0_1  constraint1_6120  1
    Z_612_0_1  constraint2_6121  1
    Z_612_0_2  OBJ       -6.7864678994170535e-01
    Z_612_0_2  constraint1_6120  1
    Z_612_0_2  constraint2_6122  1
    Z_612_0_3  OBJ       -7.5745214926946644e-03
    Z_612_0_3  constraint1_6120  1
    Z_612_0_3  constraint2_6123  1
    Z_563_0_0  OBJ       -2.5344657274992199e-02
    Z_563_0_0  constraint1_5630  1
    Z_563_0_0  constraint2_5630  1
    Z_563_0_1  OBJ       -3.1969504655383535e-01
    Z_563_0_1  constraint1_5630  1
    Z_563_0_1  constraint2_5631  1
    Z_563_0_2  OBJ       -7.4075661651883951e-03
    Z_563_0_2  constraint1_5630  1
    Z_563_0_2  constraint2_5632  1
    Z_563_0_3  OBJ       -4.4401275950473842e-02
    Z_563_0_3  constraint1_5630  1
    Z_563_0_3  constraint2_5633  1
    Z_614_0_0  OBJ       -2.4395438585704701e-03
    Z_614_0_0  constraint1_6140  1
    Z_614_0_0  constraint2_6140  1
    Z_614_0_1  OBJ       -1.1759335467379574e-02
    Z_614_0_1  constraint1_6140  1
    Z_614_0_1  constraint2_6141  1
    Z_614_0_2  OBJ       -7.9011388495808821e-01
    Z_614_0_2  constraint1_6140  1
    Z_614_0_2  constraint2_6142  1
    Z_614_0_3  OBJ       -2.7944983853324012e-02
    Z_614_0_3  constraint1_6140  1
    Z_614_0_3  constraint2_6143  1
    Z_398_0_0  OBJ       -2.2268335118311501e-03
    Z_398_0_0  constraint1_3980  1
    Z_398_0_0  constraint2_3980  1
    Z_398_0_1  OBJ       -1.4723939140841325e-02
    Z_398_0_1  constraint1_3980  1
    Z_398_0_1  constraint2_3981  1
    Z_398_0_2  OBJ       -7.1808485543693201e-01
    Z_398_0_2  constraint1_3980  1
    Z_398_0_2  constraint2_3982  1
    Z_398_0_3  OBJ       -1.9862283465971447e-02
    Z_398_0_3  constraint1_3980  1
    Z_398_0_3  constraint2_3983  1
    Z_369_0_0  OBJ       -6.9816333048154603e-03
    Z_369_0_0  constraint1_3690  1
    Z_369_0_0  constraint2_3690  1
    Z_369_0_1  OBJ       -1.0976485010631970e-01
    Z_369_0_1  constraint1_3690  1
    Z_369_0_1  constraint2_3691  1
    Z_369_0_2  OBJ       -1.3397875195095532e-02
    Z_369_0_2  constraint1_3690  1
    Z_369_0_2  constraint2_3692  1
    Z_369_0_3  OBJ       -1.6782615219566196e-02
    Z_369_0_3  constraint1_3690  1
    Z_369_0_3  constraint2_3693  1
    Z_626_0_0  OBJ       -1.8589340557979894e-02
    Z_626_0_0  constraint1_6260  1
    Z_626_0_0  constraint2_6260  1
    Z_626_0_1  OBJ       -1.2400995607297604e-02
    Z_626_0_1  constraint1_6260  1
    Z_626_0_1  constraint2_6261  1
    Z_626_0_2  OBJ       -1.1802079969116209e-02
    Z_626_0_2  constraint1_6260  1
    Z_626_0_2  constraint2_6262  1
    Z_626_0_3  OBJ       -7.7977369757211790e-01
    Z_626_0_3  constraint1_6260  1
    Z_626_0_3  constraint2_6263  1
    MARKER    'MARKER'                 'INTEND'
RHS
    RHS1      constraint1_4170  1
    RHS1      constraint1_5680  1
    RHS1      constraint1_2670  1
    RHS1      constraint1_6120  1
    RHS1      constraint1_5630  1
    RHS1      constraint1_6140  1
    RHS1      constraint1_3980  1
    RHS1      constraint1_3690  1
    RHS1      constraint1_6260  1
    RHS1      constraint2_4170  1
    RHS1      constraint2_4171  1
    RHS1      constraint2_4172  1
    RHS1      constraint2_4173  1
    RHS1      constraint2_5680  1
    RHS1      constraint2_5681  1
    RHS1      constraint2_5682  1
    RHS1      constraint2_5683  1
    RHS1      constraint2_2670  1
    RHS1      constraint2_2671  1
    RHS1      constraint2_2672  1
    RHS1      constraint2_2673  1
    RHS1      constraint2_6120  1
    RHS1      constraint2_6121  1
    RHS1      constraint2_6122  1
    RHS1      constraint2_6123  1
    RHS1      constraint2_5630  1
    RHS1      constraint2_5631  1
    RHS1      constraint2_5632  1
    RHS1      constraint2_5633  1
    RHS1      constraint2_6140  1
    RHS1      constraint2_6141  1
    RHS1      constraint2_6142  1
    RHS1      constraint2_6143  1
    RHS1      constraint2_3980  1
    RHS1      constraint2_3981  1
    RHS1      constraint2_3982  1
    RHS1      constraint2_3983  1
    RHS1      constraint2_3690  1
    RHS1      constraint2_3691  1
    RHS1      constraint2_3692  1
    RHS1      constraint2_3693  1
    RHS1      constraint2_6260  1
    RHS1      constraint2_6261  1
    RHS1      constraint2_6262  1
    RHS1      constraint2_6263  1
BOUNDS
 UP BND1      Z_417_0_0  1
 UP BND1      Z_417_0_1  1
 UP BND1      Z_417_0_2  1
 UP BND1      Z_417_0_3  1
 UP BND1      Z_568_0_0  1
 UP BND1      Z_568_0_1  1
 UP BND1      Z_568_0_2  1
 UP BND1      Z_568_0_3  1
 UP BND1      Z_267_0_0  1
 UP BND1      Z_267_0_1  1
 UP BND1      Z_267_0_2  1
 UP BND1      Z_267_0_3  1
 UP BND1      Z_612_0_0  1
 UP BND1      Z_612_0_1  1
 UP BND1      Z_612_0_2  1
 UP BND1      Z_612_0_3  1
 UP BND1      Z_563_0_0  1
 UP BND1      Z_563_0_1  1
 UP BND1      Z_563_0_2  1
 UP BND1      Z_563_0_3  1
 UP BND1      Z_614_0_0  1
 UP BND1      Z_614_0_1  1
 UP BND1      Z_614_0_2  1
 UP BND1      Z_614_0_3  1
 UP BND1      Z_398_0_0  1
 UP BND1      Z_398_0_1  1
 UP BND1      Z_398_0_2  1
 UP BND1      Z_398_0_3  1
 UP BND1      Z_369_0_0  1
 UP BND1      Z_369_0_1  1
 UP BND1      Z_369_0_2  1
 UP BND1      Z_369_0_3  1
 UP BND1      Z_626_0_0  1
 UP BND1      Z_626_0_1  1
 UP BND1      Z_626_0_2  1
 UP BND1      Z_626_0_3  1
QUADOBJ
    Z_417_0_0  Z_568_0_0  -2.5711354309165524e-03
    Z_417_0_0  Z_267_0_0  -1.9999999999999996e-01
    Z_417_0_0  Z_612_0_0  -2.5711354309165524e-03
    Z_417_0_0  Z_563_0_0  -1.7127257230341040e-04
    Z_417_0_0  Z_398_0_0  -1.9999999999999996e-01
    Z_417_0_1  Z_568_0_1  -2.5711354309165524e-03
    Z_417_0_1  Z_267_0_1  -1.9999999999999996e-01
    Z_417_0_1  Z_612_0_1  -2.5711354309165524e-03
    Z_417_0_1  Z_563_0_1  -1.7127257230341040e-04
    Z_417_0_1  Z_398_0_1  -1.9999999999999996e-01
    Z_417_0_2  Z_568_0_2  -2.5711354309165524e-03
    Z_417_0_2  Z_267_0_2  -1.9999999999999996e-01
    Z_417_0_2  Z_612_0_2  -2.5711354309165524e-03
    Z_417_0_2  Z_563_0_2  -1.7127257230341040e-04
    Z_417_0_2  Z_398_0_2  -1.9999999999999996e-01
    Z_417_0_3  Z_568_0_3  -2.5711354309165524e-03
    Z_417_0_3  Z_267_0_3  -1.9999999999999996e-01
    Z_417_0_3  Z_612_0_3  -2.5711354309165524e-03
    Z_417_0_3  Z_563_0_3  -1.7127257230341040e-04
    Z_417_0_3  Z_398_0_3  -1.9999999999999996e-01
    Z_568_0_0  Z_267_0_0  -2.5711354309165524e-03
    Z_568_0_0  Z_612_0_0  -1.9999999999999996e-01
    Z_568_0_0  Z_563_0_0  -2.0073886190480916e-03
    Z_568_0_0  Z_398_0_0  -2.5711354309165524e-03
    Z_568_0_1  Z_267_0_1  -2.5711354309165524e-03
    Z_568_0_1  Z_612_0_1  -1.9999999999999996e-01
    Z_568_0_1  Z_563_0_1  -2.0073886190480916e-03
    Z_568_0_1  Z_398_0_1  -2.5711354309165524e-03
    Z_568_0_2  Z_267_0_2  -2.5711354309165524e-03
    Z_568_0_2  Z_612_0_2  -1.9999999999999996e-01
    Z_568_0_2  Z_563_0_2  -2.0073886190480916e-03
    Z_568_0_2  Z_398_0_2  -2.5711354309165524e-03
    Z_568_0_3  Z_267_0_3  -2.5711354309165524e-03
    Z_568_0_3  Z_612_0_3  -1.9999999999999996e-01
    Z_568_0_3  Z_563_0_3  -2.0073886190480916e-03
    Z_568_0_3  Z_398_0_3  -2.5711354309165524e-03
    Z_267_0_0  Z_612_0_0  -2.5711354309165524e-03
    Z_267_0_0  Z_563_0_0  -1.7127257230341040e-04
    Z_267_0_0  Z_398_0_0  -1.9999999999999996e-01
    Z_267_0_1  Z_612_0_1  -2.5711354309165524e-03
    Z_267_0_1  Z_563_0_1  -1.7127257230341040e-04
    Z_267_0_1  Z_398_0_1  -1.9999999999999996e-01
    Z_267_0_2  Z_612_0_2  -2.5711354309165524e-03
    Z_267_0_2  Z_563_0_2  -1.7127257230341040e-04
    Z_267_0_2  Z_398_0_2  -1.9999999999999996e-01
    Z_267_0_3  Z_612_0_3  -2.5711354309165524e-03
    Z_267_0_3  Z_563_0_3  -1.7127257230341040e-04
    Z_267_0_3  Z_398_0_3  -1.9999999999999996e-01
    Z_612_0_0  Z_563_0_0  -2.0073886190480916e-03
    Z_612_0_0  Z_398_0_0  -2.5711354309165524e-03
    Z_612_0_1  Z_563_0_1  -2.0073886190480916e-03
    Z_612_0_1  Z_398_0_1  -2.5711354309165524e-03
    Z_612_0_2  Z_563_0_2  -2.0073886190480916e-03
    Z_612_0_2  Z_398_0_2  -2.5711354309165524e-03
    Z_612_0_3  Z_563_0_3  -2.0073886190480916e-03
    Z_612_0_3  Z_398_0_3  -2.5711354309165524e-03
    Z_563_0_0  Z_614_0_0  -1.7748622744632542e-04
    Z_563_0_0  Z_398_0_0  -1.7127257230341040e-04
    Z_563_0_0  Z_369_0_0  -7.8328359042433691e-09
    Z_563_0_0  Z_626_0_0  -8.0332115575173807e-02
    Z_563_0_1  Z_614_0_1  -1.7748622744632542e-04
    Z_563_0_1  Z_398_0_1  -1.7127257230341040e-04
    Z_563_0_1  Z_369_0_1  -7.8328359042433691e-09
    Z_563_0_1  Z_626_0_1  -8.0332115575173807e-02
    Z_563_0_2  Z_614_0_2  -1.7748622744632542e-04
    Z_563_0_2  Z_398_0_2  -1.7127257230341040e-04
    Z_563_0_2  Z_369_0_2  -7.8328359042433691e-09
    Z_563_0_2  Z_626_0_2  -8.0332115575173807e-02
    Z_563_0_3  Z_614_0_3  -1.7748622744632542e-04
    Z_563_0_3  Z_398_0_3  -1.7127257230341040e-04
    Z_563_0_3  Z_369_0_3  -7.8328359042433691e-09
    Z_563_0_3  Z_626_0_3  -8.0332115575173807e-02
    Z_614_0_0  Z_369_0_0  -7.4498613192750486e-03
    Z_614_0_1  Z_369_0_1  -7.4498613192750486e-03
    Z_614_0_2  Z_369_0_2  -7.4498613192750486e-03
    Z_614_0_3  Z_369_0_3  -7.4498613192750486e-03
ENDATA
